O127 Ti64 
1.0
1.1851000000000001e+01 0.0000000000000000e+00 0.0000000000000000e+00 
0.0000000000000000e+00 1.2993000000000000e+01 0.0000000000000000e+00 
0.0000000000000000e+00 0.0000000000000000e+00 2.2247000000000000e+01 
O Ti 
127 64 
Cartesian
   0.0028670500    0.0016697300    4.9291700000
   0.0057239500    3.2414500000    8.2547500000
  11.8509000000   12.9868000000   11.4937000000
   0.0134543000    3.2508900000   14.8319000000
   0.0043894500    0.0043169400    7.4682700000
   0.0034599300    3.2463500000   10.8116000000
   0.0303847000    0.0424856000   14.0314000000
   0.0134130000    3.2507000000   17.3645000000
   1.4785200000    4.4684900000    6.1135500000
   1.4870400000    1.2791400000    9.4906800000
   1.4925300000    4.5315900000   12.7981000000
   1.5073200000    1.2176400000   16.1889000000
   1.4907900000    2.0228000000    6.1149000000
   1.4830700000    5.2181700000    9.4989500000
   1.4942500000    1.9685600000   12.8009000000
   1.5069300000    5.2845700000   16.1904000000
   2.9659500000   12.9832000000    4.9275700000
   2.9642800000    3.2543000000    8.2524200000
   2.9748400000   12.9877000000   11.4876000000
   2.9704300000    3.2526800000   14.8251000000
   2.9648900000   12.9827000000    7.4647100000
   2.9705900000    3.2514000000   10.8082000000
   2.9702500000   12.9862000000   14.0501000000
   2.9781400000    3.2510300000   17.3607000000
   4.4536200000    4.4687900000    6.1138400000
   4.4463000000    1.2809100000    9.4809200000
   4.4517300000    4.5349100000   12.8092000000
   4.4601300000    1.2206500000   16.1678000000
   4.4414700000    2.0225400000    6.1151200000
   4.4502800000    5.2174400000    9.4883900000
   4.4498600000    1.9650900000   12.8116000000
   4.4609400000    5.2820600000   16.1699000000
   5.9291400000    0.0020901000    4.9270100000
   5.9313900000    3.2413200000    8.2519800000
   5.9269200000    0.0102411000   11.4851000000
   5.9380400000    3.2508800000   14.8224000000
   5.9312400000    0.0055566700    7.4653300000
   5.9271700000    3.2464800000   10.8081000000
   5.9383400000   12.9787000000   14.0500000000
   5.9336900000    3.2507900000   17.3588000000
   7.4045700000    4.4685000000    6.1127500000
   7.4163900000    1.2790700000    9.4921100000
   7.4100500000    4.5318900000   12.7983000000
   7.4220200000    1.2163800000   16.1757000000
   7.4171500000    2.0226900000    6.1154000000
   7.4099700000    5.2151200000    9.4950400000
   7.4114000000    1.9669300000   12.7993000000
   7.4217300000    5.2859200000   16.1768000000
   8.8929400000   12.9832000000    4.9290900000
   8.8916500000    3.2536400000    8.2540500000
   8.9043900000   12.9799000000   11.4921000000
   8.8979800000    3.2512800000   14.8290000000
   8.8921500000   12.9793000000    7.4667300000
   8.8936500000    3.2480500000   10.8108000000
   8.8795300000    0.0220904000   14.0412000000
   8.8947900000    3.2510400000   17.3635000000
  10.3797000000    4.4685100000    6.1150900000
  10.3712000000    1.2797600000    9.4900700000
  10.3764000000    4.5314000000   12.8120000000
  10.3840000000    1.2186100000   16.2001000000
  10.3672000000    2.0226000000    6.1177900000
  10.3775000000    5.2157400000    9.4901400000
  10.3752000000    1.9681300000   12.8120000000
  10.3843000000    5.2836400000   16.2014000000
   0.0024657400    6.5020200000    4.9298900000
   0.0036104500    9.7366800000    8.2624100000
  11.8513000000    6.5097200000   11.4943000000
   0.0940542000    9.7473800000   14.9162000000
   0.0052457500    6.5031400000    7.4688100000
   0.0013485500    9.7426000000   10.8554000000
   0.0302857000    6.4580300000   14.0320000000
  10.4193000000    7.7280300000   16.0408000000
   1.4763100000   10.9630000000    6.1122900000
   1.4869100000    7.7799100000    9.4936200000
   1.4937700000   11.0278000000   12.8275000000
   1.4839400000    7.7585200000   16.1874000000
   1.4891800000    8.5209800000    6.1135000000
   1.4828900000   11.7104000000    9.4982900000
   1.4954000000    8.4657500000   12.8307000000
   1.4833000000   11.7366000000   16.1881000000
   2.9659300000    6.4901000000    4.9277600000
   2.9627000000    9.7490100000    8.2527500000
   2.9749000000    6.5039300000   11.4882000000
   3.0631200000    9.7489100000   14.8169000000
   2.9643400000    6.4873700000    7.4657500000
   2.9702700000    9.7443300000   10.8309000000
   2.9704400000    6.5048600000   14.0508000000
   2.9308300000    9.7476900000   17.3467000000
   4.4548100000   10.9637000000    6.1117500000
   4.4467500000    7.7788000000    9.4810900000
   4.4578600000   11.0287000000   12.8115000000
   4.4629200000    7.7318900000   16.2130000000
   4.4420500000    8.5205200000    6.1126000000
   4.4511700000   11.7113000000    9.4881400000
   4.4563900000    8.4648200000   12.8154000000
   4.4633800000   11.7638000000   16.2138000000
   5.9292000000    6.5015100000    4.9276800000
   5.9339700000    9.7364100000    8.2535400000
   5.9266800000    6.4929400000   11.4857000000
   5.9585200000    9.7479400000   14.9029000000
   5.9311800000    6.5021000000    7.4658800000
   5.9275000000    9.7425100000   10.8265000000
   5.9385900000    6.5149600000   14.0505000000
   5.9705500000    9.7476100000   17.4320000000
   7.4043800000   10.9633000000    6.1118300000
   7.4157100000    7.7786800000    9.4931700000
   7.4022700000   11.0326000000   12.8156000000
   7.4456900000    7.7454400000   16.2342000000
   7.4174500000    8.5210600000    6.1144300000
   7.4095300000   11.7091000000    9.4939000000
   7.4032700000    8.4602800000   12.8160000000
   7.4454000000   11.7499000000   16.2349000000
   8.8930000000    6.4915400000    4.9292900000
   8.8939700000    9.7508100000    8.2608300000
   8.9042000000    6.5112600000   11.4925000000
   8.7563600000    9.7480300000   14.8139000000
   8.8914200000    6.4849900000    7.4672100000
   8.8990500000    9.7449600000   10.8498000000
   8.8795000000    6.4778800000   14.0414000000
   9.3969000000    9.7475200000   17.4020000000
  10.3811000000   10.9629000000    6.1156700000
  10.3713000000    7.7792800000    9.4919300000
  10.3833000000   11.0280000000   12.8826000000
  10.3679000000    8.5211900000    6.1185600000
  10.3776000000   11.7079000000    9.4934400000
  10.3823000000    8.4643400000   12.8832000000
  10.4195000000   11.7671000000   16.0415000000
   0.0036884400    3.2170000000    6.4626700000
   0.0063255600    0.0159782000    9.2850700000
   0.0027531500    3.2487700000   13.0135000000
   0.0183057000    0.0145965000   15.8087000000
   1.4845500000   -0.0001604120    5.9851800000
   1.4852900000    3.2857400000    9.6757500000
   1.4908200000    0.0282918000   12.6137000000
   1.4920300000    3.2509400000   16.3071000000
   2.9660000000    3.2721900000    6.4604100000
   2.9654700000   13.0193000000    9.2802200000
   2.9694500000    3.2495700000   13.0081000000
   2.9825900000    0.0052952800   15.8365000000
   4.4475700000   -0.0004942100    5.9835000000
   4.4481000000    3.2836800000    9.6661600000
   4.4517600000    0.0181374000   12.6261000000
   4.4539900000    3.2522400000   16.3000000000
   5.9294800000    3.2168000000    6.4601400000
   5.9317900000    0.0239120000    9.2816900000
   5.9309200000    3.2469600000   13.0048000000
   5.9453600000    0.0086051900   15.8349000000
   7.4102100000    0.0009938160    5.9842100000
   7.4115200000    3.2474500000    9.6745800000
   7.4123700000    0.0278006000   12.6102000000
   7.4147200000    3.2514000000   16.3025000000
   8.8920000000    3.2744400000    6.4620800000
   8.8925600000   12.9658000000    9.2815700000
   8.9008000000    3.2490200000   13.0122000000
   8.9117200000   12.9880000000   15.8264000000
  10.3734000000    0.0011644200    5.9868900000
  10.3739000000    3.2342600000    9.6721600000
  10.3751000000    0.0088869000   12.6389000000
  10.3783000000    3.2514100000   16.3124000000
   0.0033028400    9.7081000000    6.4555900000
   0.0002051200    6.5120200000    9.2855600000
   0.0193815000    9.7456300000   12.9574000000
   0.0184544000    6.4879800000   15.8092000000
   1.4844900000    6.4876100000    5.9853900000
   1.4673200000    9.7697800000    9.6383000000
   1.4908000000    6.4708900000   12.6144000000
   1.7210800000    9.7475500000   15.9688000000
   2.9657200000    9.7740500000    6.4552900000
   2.9679900000    6.5225700000    9.2807500000
   2.9811200000    9.7456300000   12.7958000000
   2.9828100000    6.4950800000   15.8372000000
   4.4474400000    6.4877600000    5.9834600000
   4.4625300000    9.7819700000    9.6240000000
   4.4519600000    6.4785900000   12.6274000000
   4.4824100000    9.7481200000   16.3930000000
   5.9300800000    9.7081600000    6.4492000000
   5.9296900000    6.5178500000    9.2820800000
   5.9298600000    9.7444000000   12.9426000000
   5.9460600000    6.4964500000   15.8356000000
   7.4106300000    6.4892000000    5.9848700000
   7.4056100000    9.7388600000    9.6453400000
   7.4122700000    6.4670100000   12.6103000000
   7.3197800000    9.7490900000   16.2302000000
   8.8923000000    9.7763700000    6.4626800000
   8.8954400000    6.4716500000    9.2828100000
   8.8749200000    9.7452400000   12.8369000000
   8.9115600000    6.5064100000   15.8267000000
  10.3729000000    6.4894800000    5.9875100000
  10.3862000000    9.7407000000    9.6506700000
  10.3750000000    6.4880400000   12.6395000000
  10.2013000000    9.7475000000   15.9205000000
